500
50 50
1 35 609
2 35 968
3 35 671
4 35 325
5 35 422
6 35 883
7 35 749
8 35 182
9 35 593
10 35 602
11 35 680
12 35 942
13 35 99
14 35 800
15 35 924
16 35 160
17 35 449
18 35 448
19 35 97
20 35 782
21 35 807
22 35 495
23 34 103
24 34 524
25 34 364
26 34 878
27 34 318
28 34 534
29 34 589
30 34 822
31 34 231
32 34 762
33 34 633
34 34 609
35 34 489
36 34 731
37 34 608
38 34 583
39 34 490
40 34 520
41 34 96
42 34 892
43 34 710
44 34 288
45 34 962
46 34 67
47 34 632
48 33 941
49 33 637
50 33 633
51 33 441
52 33 455
53 33 419
54 33 135
55 33 651
56 33 718
57 33 622
58 33 62
59 33 879
60 33 713
61 33 469
62 33 652
63 33 213
64 32 382
65 32 503
66 32 388
67 32 937
68 32 159
69 32 352
70 32 603
71 32 759
72 32 563
73 32 273
74 32 921
75 32 549
76 32 864
77 32 326
78 32 843
79 32 107
80 32 417
81 31 782
82 31 910
83 31 125
84 31 709
85 31 180
86 31 184
87 31 718
88 31 985
89 31 142
90 31 525
91 31 829
92 31 760
93 31 313
94 31 49
95 31 552
96 31 507
97 31 143
98 31 646
99 31 525
100 31 407
101 31 579
102 31 29
103 30 297
104 30 185
105 30 47
106 30 786
107 30 309
108 30 962
109 30 616
110 30 140
111 30 621
112 30 18
113 30 647
114 30 863
115 30 510
116 30 60
117 30 68
118 30 774
119 29 149
120 29 43
121 29 913
122 29 913
123 29 752
124 29 538
125 29 780
126 29 744
127 29 111
128 29 826
129 29 269
130 29 147
131 29 102
132 29 137
133 29 431
134 29 745
135 29 570
136 29 662
137 29 602
138 28 578
139 28 160
140 28 193
141 28 120
142 28 64
143 28 736
144 28 758
145 28 841
146 28 636
147 28 379
148 28 478
149 28 876
150 28 370
151 27 47
152 27 387
153 27 961
154 27 475
155 27 741
156 27 931
157 27 735
158 27 824
159 27 494
160 27 103
161 27 598
162 27 217
163 27 718
164 27 663
165 27 94
166 27 189
167 27 621
168 27 758
169 27 162
170 27 180
171 27 194
172 27 156
173 27 202
174 26 728
175 26 747
176 26 833
177 26 976
178 26 286
179 26 578
180 26 982
181 26 311
182 26 727
183 26 759
184 26 207
185 26 873
186 26 671
187 25 529
188 25 657
189 25 593
190 25 444
191 25 364
192 25 655
193 25 428
194 25 866
195 25 597
196 25 596
197 25 441
198 25 654
199 25 344
200 25 723
201 25 163
202 25 913
203 25 455
204 24 837
205 24 377
206 24 179
207 24 168
208 24 152
209 24 208
210 24 721
211 24 542
212 24 565
213 24 501
214 24 421
215 24 581
216 24 173
217 24 862
218 24 305
219 24 106
220 24 230
221 24 640
222 24 899
223 24 89
224 24 987
225 24 529
226 24 178
227 24 766
228 24 410
229 24 973
230 23 330
231 23 487
232 23 703
233 23 7
234 23 816
235 23 373
236 23 746
237 23 233
238 23 465
239 23 265
240 23 20
241 23 219
242 23 836
243 23 542
244 23 84
245 23 2
246 23 341
247 23 407
248 22 784
249 22 761
250 22 112
251 22 834
252 22 584
253 22 508
254 22 561
255 22 568
256 22 535
257 22 104
258 22 459
259 22 911
260 22 307
261 22 152
262 22 518
263 22 621
264 22 582
265 22 866
266 22 42
267 22 673
268 22 663
269 22 649
270 22 682
271 21 564
272 21 536
273 21 628
274 21 946
275 21 383
276 21 784
277 21 751
278 21 778
279 21 284
280 21 778
281 21 645
282 21 279
283 21 288
284 21 683
285 21 569
286 21 927
287 21 64
288 21 694
289 21 758
290 20 379
291 20 693
292 20 119
293 20 257
294 20 187
295 20 599
296 20 621
297 20 432
298 20 569
299 20 989
300 20 441
301 20 602
302 20 804
303 20 902
304 20 839
305 20 579
306 19 111
307 19 270
308 19 992
309 19 774
310 19 142
311 19 772
312 19 31
313 19 399
314 19 441
315 19 677
316 19 70
317 19 351
318 19 354
319 19 646
320 19 538
321 19 447
322 19 673
323 18 188
324 18 136
325 18 811
326 18 431
327 18 782
328 18 194
329 18 672
330 18 511
331 18 713
332 18 974
333 18 360
334 18 27
335 18 262
336 18 997
337 18 999
338 18 560
339 18 901
340 18 599
341 18 926
342 18 985
343 18 658
344 18 178
345 18 787
346 18 488
347 18 949
348 18 650
349 18 360
350 18 47
351 17 232
352 17 42
353 17 380
354 17 985
355 17 367
356 17 257
357 17 997
358 17 217
359 17 981
360 17 761
361 17 761
362 17 280
363 17 146
364 17 595
365 17 529
366 16 841
367 16 680
368 16 237
369 16 321
370 16 799
371 16 75
372 16 856
373 16 128
374 16 466
375 16 170
376 16 520
377 16 967
378 16 598
379 16 880
380 16 857
381 16 498
382 16 194
383 16 982
384 16 632
385 15 835
386 15 323
387 15 102
388 15 684
389 15 207
390 15 934
391 15 42
392 15 588
393 15 274
394 15 547
395 15 703
396 15 641
397 15 393
398 15 992
399 15 410
400 15 103
401 15 556
402 15 33
403 15 397
404 15 156
405 15 523
406 15 577
407 14 852
408 14 129
409 14 609
410 14 556
411 14 0
412 14 76
413 14 376
414 14 575
415 14 764
416 14 965
417 14 507
418 14 351
419 14 108
420 14 258
421 14 122
422 14 209
423 14 11
424 14 730
425 14 466
426 14 135
427 14 672
428 14 73
429 14 940
430 13 516
431 13 382
432 13 848
433 13 310
434 13 274
435 13 541
436 13 379
437 13 288
438 13 671
439 13 992
440 13 307
441 13 665
442 13 331
443 13 42
444 13 581
445 13 838
446 12 8
447 12 894
448 12 745
449 12 155
450 12 389
451 12 474
452 12 257
453 12 351
454 11 771
455 11 797
456 11 956
457 11 901
458 11 629
459 11 728
460 11 979
461 11 866
462 11 896
463 11 151
464 11 938
465 11 644
466 11 466
467 11 928
468 11 830
469 11 238
470 11 372
471 11 673
472 11 827
473 11 792
474 11 381
475 11 598
476 11 524
477 11 710
478 10 849
479 10 5
480 10 409
481 10 960
482 10 353
483 10 699
484 10 549
485 10 873
486 10 625
487 10 553
488 10 960
489 10 95
490 10 105
491 10 190
492 10 141
493 10 263
494 10 197
495 10 285
496 10 648
497 10 595
498 10 718
499 10 72
500 10 178
